c 60_4_checker_5cl.cnf
c
c field = 60
c formula set type = 4_checker_5cl
c
p cnf 5 6
110 
112 
114 
116 
-108 
111 
113 
115 
117 
-109 
28 
58 
88 
148 
-178 
29 
59 
89 
149 
-179 
146 
174 
202 
230 
-258 
147 
175 
203 
231 
-259 
